NAME 
ROWS
 N  OBJ
 L  R0      
 L  R1      
 E  R2      
 E  R3      
 E  R4      
 E  R5      
 E  R6      
COLUMNS
    MARKER    'MARKER'                 'INTORG'
    I0(5)     OBJ       -100
    I0(5)     R0        176
    I0(5)     R1        -4
    I0(5)     R2        8
    I0(5)     R3        17
    I0(5)     R6        1
    I1(3)     OBJ       130
    I1(3)     R0        41
    I1(3)     R1        -39
    I1(3)     R6        1
    MARKER    'MARKER'                 'INTEND'
    C2(4)     OBJ       -3
    C2(4)     R0        -2
    C2(4)     R3        4
    C2(4)     R4        11
    C2(4)     R5        5
    C3(4)     OBJ       -7
    C3(4)     R0        -2
    C3(4)     R1        7
    C3(4)     R2        2
    C3(4)     R4        3
    C4(3)     OBJ       -9
    C4(3)     R3        19
    C4(3)     R4        1
    C4(3)     R5        7
    C5(1)     R2        1
    C6(1)     R3        1
    C7(1)     R4        1
    C8(1)     R5        1
    C9(1)     R6        1
RHS
    RHS1      R0        -5.9543859649122837e+01
    RHS1      R1        2.0840350877192992e+02
    RHS1      R2        66
    RHS1      R3        51
    RHS1      R4        92
    RHS1      R5        58
BOUNDS
 UP BND1      I0(5)     2
 UP BND1      I1(3)     2
ENDATA
